; benchmark generated from python API
(set-info :status unknown)
(declare-fun x_months () Int)
(declare-fun x_beta () Int)
(assert
 (>= x_months (- 1202)))
(assert
 (<= x_months 1209))
(assert
 (>= x_beta 0))
(assert
 (let ((?x2967 (div (- (+ x_months (+ (* 2000 12) 3)) 1) 12)))
 (let ((?x11 (+ (* 2000 12) 3)))
 (let ((?x3353 (+ x_months ?x11)))
 (let ((?x1755 (- ?x3353 (* ?x2967 12))))
 (let ((?x1513 (ite (or (= ?x1755 4) (= ?x1755 6) (= ?x1755 9) (= ?x1755 11)) 30 31)))
 (let (($x3791 (or (and (= (mod ?x2967 4) 0) (and (distinct (mod ?x2967 100) 0) true)) (= (mod ?x2967 400) 0))))
 (< x_beta (ite (= ?x1755 2) (ite $x3791 29 28) ?x1513)))))))))
(assert
 (let ((?x11 (+ (* 2000 12) 3)))
 (let ((?x899 (- (+ (* 2023 12) 1) ?x11)))
 (or (> x_months ?x899) (and (= x_months ?x899) (<= 0 x_beta))))))
(assert
 (let ((?x11 (+ (* 2000 12) 3)))
 (let ((?x1919 (- (+ (* 2023 12) 12) ?x11)))
 (or (< x_months ?x1919) (and (= x_months ?x1919) (>= 30 x_beta))))))
(assert
 (let ((?x2251 (+ x_beta 1)))
(let ((?x2007 (div (- (+ (+ x_months 0) (+ (* 2000 12) 3)) 1) 12)))
(let ((?x11 (+ (* 2000 12) 3)))
(let ((?x1237 (+ (+ x_months 0) ?x11)))
(let ((?x1278 (- ?x1237 (* ?x2007 12))))
(let ((?x1944 (ite (or (= ?x1278 4) (= ?x1278 6) (= ?x1278 9) (= ?x1278 11)) 30 31)))
(let (($x944 (or (and (= (mod ?x2007 4) 0) (and (distinct (mod ?x2007 100) 0) true)) (= (mod ?x2007 400) 0))))
(let ((?x2049 (ite (= ?x1278 2) (ite $x944 29 28) ?x1944)))
(let (($x968 (> 1 ?x2251)))
(let ((?x1028 (ite $x968 1 (ite (> ?x2251 ?x2049) ?x2049 ?x2251))))
(let ((?x3590 (ite (> 1 ?x1028) 1 (ite (> ?x1028 ?x2049) ?x2049 ?x1028))))
(let ((?x3228 (ite (= 2 ?x1278) (ite $x944 31 31) (ite (= 1 ?x1278) (ite $x944 0 0) 0))))
(let ((?x2364 (ite (= 4 ?x1278) (ite $x944 91 90) (ite (= 3 ?x1278) (ite $x944 60 59) ?x3228))))
(let ((?x1099 (ite (= 6 ?x1278) (ite $x944 152 151) (ite (= 5 ?x1278) (ite $x944 121 120) ?x2364))))
(let ((?x1783 (ite (= 8 ?x1278) (ite $x944 213 212) (ite (= 7 ?x1278) (ite $x944 182 181) ?x1099))))
(let ((?x2640 (ite (= 10 ?x1278) (ite $x944 274 273) (ite (= 9 ?x1278) (ite $x944 244 243) ?x1783))))
(let ((?x4079 (ite (= 12 ?x1278) (ite $x944 335 334) (ite (= 11 ?x1278) (ite $x944 305 304) ?x2640))))
(let ((?x2850 (- (+ (* 365 (- ?x2007 1)) (div (- ?x2007 1) 4)) (div (- ?x2007 1) 100))))
(let ((?x2868 (- (+ (+ (+ ?x2850 (div (- ?x2007 1) 400)) ?x4079) (- ?x3590 1)) 730179)))
(let ((?x1641 (+ (+ ?x2868 61) 730179)))
(let ((?x2217 (mod ?x1641 146097)))
(let ((?x1825 (div ?x2217 36524)))
(let ((?x4090 (ite (<= 4 ?x1825) 3 ?x1825)))
(let ((?x2360 (- ?x2217 (* ?x4090 36524))))
(let ((?x1934 (mod ?x2360 1461)))
(let ((?x3546 (div ?x1934 365)))
(let ((?x3737 (ite (<= 4 ?x3546) 3 ?x3546)))
(let ((?x1627 (+ (+ (* (div ?x1641 146097) 400) (* ?x4090 100)) (* (div ?x2360 1461) 4))))
(let ((?x933 (+ (+ ?x1627 ?x3737) 1)))
(let (($x655 (or (and (= (mod ?x933 4) 0) (and (distinct (mod ?x933 100) 0) true)) (= (mod ?x933 400) 0))))
(let ((?x1402 (- ?x1934 (* ?x3737 365))))
(let ((?x1038 (ite $x655 31 31)))
(let (($x2063 (>= ?x1402 ?x1038)))
(let ((?x3822 (ite $x2063 (+ (- ?x1402 ?x1038) 1) (+ (- ?x1402 (ite $x655 0 0)) 1))))
(let ((?x2524 (ite $x655 60 59)))
(let (($x3131 (>= ?x1402 ?x2524)))
(let ((?x1625 (ite $x655 91 90)))
(let (($x2764 (>= ?x1402 ?x1625)))
(let ((?x1567 (ite $x2764 (+ (- ?x1402 ?x1625) 1) (ite $x3131 (+ (- ?x1402 ?x2524) 1) ?x3822))))
(let ((?x1107 (ite $x655 121 120)))
(let (($x345 (>= ?x1402 ?x1107)))
(let ((?x2804 (ite $x655 152 151)))
(let (($x3196 (>= ?x1402 ?x2804)))
(let ((?x1746 (ite $x3196 (+ (- ?x1402 ?x2804) 1) (ite $x345 (+ (- ?x1402 ?x1107) 1) ?x1567))))
(let ((?x2972 (ite $x655 182 181)))
(let (($x2788 (>= ?x1402 ?x2972)))
(let ((?x1096 (ite $x655 213 212)))
(let (($x2593 (>= ?x1402 ?x1096)))
(let ((?x2689 (ite $x2593 (+ (- ?x1402 ?x1096) 1) (ite $x2788 (+ (- ?x1402 ?x2972) 1) ?x1746))))
(let ((?x2192 (ite $x655 244 243)))
(let (($x4104 (>= ?x1402 ?x2192)))
(let ((?x785 (ite $x655 274 273)))
(let (($x2970 (>= ?x1402 ?x785)))
(let ((?x2747 (ite $x2970 (+ (- ?x1402 ?x785) 1) (ite $x4104 (+ (- ?x1402 ?x2192) 1) ?x2689))))
(let ((?x3833 (ite $x655 305 304)))
(let (($x1021 (>= ?x1402 ?x3833)))
(let ((?x3345 (ite $x655 335 334)))
(let (($x504 (>= ?x1402 ?x3345)))
(let ((?x1985 (ite $x504 (+ (- ?x1402 ?x3345) 1) (ite $x1021 (+ (- ?x1402 ?x3833) 1) ?x2747))))
(let (($x358 (= 61 0)))
(let ((?x770 (+ (+ x_months 2) ?x11)))
(let ((?x1284 (- ?x770 (* (div (- ?x770 1) 12) 12))))
(let ((?x330 (ite (or (= ?x1284 4) (= ?x1284 6) (= ?x1284 9) (= ?x1284 11)) 30 31)))
(let (($x2152 (and (= (mod (div (- ?x770 1) 12) 4) 0) (and (distinct (mod (div (- ?x770 1) 12) 100) 0) true))))
(let (($x2733 (or $x2152 (= (mod (div (- ?x770 1) 12) 400) 0))))
(let ((?x523 (ite (= ?x1284 2) (ite $x2733 29 28) ?x330)))
(let ((?x3265 (ite $x968 1 (ite (> ?x2251 ?x523) ?x523 ?x2251))))
(let ((?x1915 (ite (> 1 ?x3265) 1 (ite (> ?x3265 ?x523) ?x523 ?x3265))))
(let ((?x291 (ite (= 2 ?x1284) (ite $x2733 31 31) (ite (= 1 ?x1284) (ite $x2733 0 0) 0))))
(let ((?x2003 (ite (= 4 ?x1284) (ite $x2733 91 90) (ite (= 3 ?x1284) (ite $x2733 60 59) ?x291))))
(let ((?x2282 (ite (= 6 ?x1284) (ite $x2733 152 151) (ite (= 5 ?x1284) (ite $x2733 121 120) ?x2003))))
(let ((?x1236 (ite (= 8 ?x1284) (ite $x2733 213 212) (ite (= 7 ?x1284) (ite $x2733 182 181) ?x2282))))
(let ((?x1553 (ite (= 10 ?x1284) (ite $x2733 274 273) (ite (= 9 ?x1284) (ite $x2733 244 243) ?x1236))))
(let ((?x3789 (ite (= 12 ?x1284) (ite $x2733 335 334) (ite (= 11 ?x1284) (ite $x2733 305 304) ?x1553))))
(let ((?x2424 (+ (* 365 (- (div (- ?x770 1) 12) 1)) (div (- (div (- ?x770 1) 12) 1) 4))))
(let ((?x3925 (+ (- ?x2424 (div (- (div (- ?x770 1) 12) 1) 100)) (div (- (div (- ?x770 1) 12) 1) 400))))
(let ((?x3052 (+ (+ (- (+ (+ ?x3925 ?x3789) (- ?x1915 1)) 730179) 0) 730179)))
(let ((?x479 (mod ?x3052 146097)))
(let ((?x3060 (div ?x479 36524)))
(let ((?x1643 (ite (<= 4 ?x3060) 3 ?x3060)))
(let ((?x1890 (- ?x479 (* ?x1643 36524))))
(let ((?x581 (mod ?x1890 1461)))
(let ((?x3039 (div ?x581 365)))
(let ((?x4038 (ite (<= 4 ?x3039) 3 ?x3039)))
(let ((?x1878 (+ (+ (* (div ?x3052 146097) 400) (* ?x1643 100)) (* (div ?x1890 1461) 4))))
(let ((?x2959 (+ (+ ?x1878 ?x4038) 1)))
(let (($x419 (or (and (= (mod ?x2959 4) 0) (and (distinct (mod ?x2959 100) 0) true)) (= (mod ?x2959 400) 0))))
(let ((?x2349 (- ?x581 (* ?x4038 365))))
(let ((?x1472 (ite $x419 31 31)))
(let (($x1078 (>= ?x2349 ?x1472)))
(let ((?x531 (ite $x1078 (+ (- ?x2349 ?x1472) 1) (+ (- ?x2349 (ite $x419 0 0)) 1))))
(let ((?x2794 (ite $x419 60 59)))
(let (($x2163 (>= ?x2349 ?x2794)))
(let ((?x2759 (ite $x419 91 90)))
(let (($x1313 (>= ?x2349 ?x2759)))
(let ((?x3926 (ite $x1313 (+ (- ?x2349 ?x2759) 1) (ite $x2163 (+ (- ?x2349 ?x2794) 1) ?x531))))
(let ((?x3732 (ite $x419 121 120)))
(let (($x2749 (>= ?x2349 ?x3732)))
(let ((?x2963 (ite $x419 152 151)))
(let (($x1945 (>= ?x2349 ?x2963)))
(let ((?x1928 (ite $x1945 (+ (- ?x2349 ?x2963) 1) (ite $x2749 (+ (- ?x2349 ?x3732) 1) ?x3926))))
(let ((?x3222 (ite $x419 182 181)))
(let (($x3315 (>= ?x2349 ?x3222)))
(let ((?x617 (ite $x419 213 212)))
(let (($x3917 (>= ?x2349 ?x617)))
(let ((?x1779 (ite $x3917 (+ (- ?x2349 ?x617) 1) (ite $x3315 (+ (- ?x2349 ?x3222) 1) ?x1928))))
(let ((?x1367 (ite $x419 244 243)))
(let (($x919 (>= ?x2349 ?x1367)))
(let ((?x1256 (ite $x419 274 273)))
(let (($x608 (>= ?x2349 ?x1256)))
(let ((?x1656 (ite $x608 (+ (- ?x2349 ?x1256) 1) (ite $x919 (+ (- ?x2349 ?x1367) 1) ?x1779))))
(let ((?x3279 (ite $x419 305 304)))
(let (($x2892 (>= ?x2349 ?x3279)))
(let ((?x752 (ite $x419 335 334)))
(let (($x3538 (>= ?x2349 ?x752)))
(let ((?x262 (ite $x3538 (+ (- ?x2349 ?x752) 1) (ite $x2892 (+ (- ?x2349 ?x3279) 1) ?x1656))))
(let (($x3530 (= 0 0)))
(let ((?x4019 (ite $x345 5 (ite $x2764 4 (ite $x3131 3 (ite $x2063 2 1))))))
(let ((?x2656 (ite $x4104 9 (ite $x2593 8 (ite $x2788 7 (ite $x3196 6 ?x4019))))))
(let ((?x2392 (ite $x504 12 (ite $x1021 11 (ite $x2970 10 ?x2656)))))
(let ((?x2763 (ite $x2749 5 (ite $x1313 4 (ite $x2163 3 (ite $x1078 2 1))))))
(let ((?x1543 (ite $x919 9 (ite $x3917 8 (ite $x3315 7 (ite $x1945 6 ?x2763))))))
(let ((?x243 (+ (* (ite $x3530 (div (- ?x770 1) 12) ?x2959) 12) (ite $x3530 ?x1284 (ite $x3538 12 (ite $x2892 11 (ite $x608 10 ?x1543)))))))
(let (($x545 (= (- ?x243 ?x11) (- (+ (* (ite $x358 ?x2007 ?x933) 12) (ite $x358 ?x1278 ?x2392)) ?x11))))
(and $x545 (= (- (ite $x3530 ?x1915 ?x262) 1) (- (ite $x358 ?x3590 ?x1985) 1))))))))))))))))))))))))))))))))))))))))))))))))))))))))))))))))))))))))))))))))))))))))))))))))))))))))))))))))))))))))))))))))
(check-sat)
